//Number of items      		
174
//Bin Capacity      
1000
//Known Best Solution  		
71
//Weight of Item
     700         1
     698         1
     691         1
     687         1
     682         1
     679         1
     677         1
     667         2
     666         1
     663         1
     654         2
     653         3
     652         1
     648         1
     646         1
     645         1
     644         1
     639         1
     631         2
     630         1
     628         1
     627         1
     626         1
     624         1
     619         1
     611         1
     610         1
     608         1
     603         1
     599         1
     598         1
     595         1
     592         1
     586         1
     579         1
     568         1
     567         1
     562         1
     557         1
     556         1
     554         2
     553         2
     550         1
     543         1
     541         1
     535         2
     534         1
     533         1
     532         1
     531         2
     527         1
     524         1
     520         1
     519         1
     518         1
     517         1
     515         1
     510         1
     509         1
     508         1
     498         1
     492         1
     479         1
     477         1
     473         1
     469         1
     465         1
     463         2
     457         1
     451         1
     447         1
     437         1
     432         1
     419         1
     418         1
     415         1
     407         1
     405         1
     403         1
     400         2
     393         1
     391         1
     390         2
     388         2
     363         1
     357         1
     354         1
     350         1
     348         1
     347         1
     342         1
     339         1
     333         1
     330         1
     325         1
     321         1
     308         1
     303         3
     301         1
     300         1
     285         1
     281         1
     277         1
     274         1
     271         1
     270         1
     268         1
     258         1
     256         2
     253         1
     250         1
     248         1
     244         1
     229         1
     223         1
     221         1
     220         1
     218         2
     210         1
     209         1
     208         1
     206         2
     196         1
     193         1
     188         1
     186         1
     185         3
     177         1
     172         1
     167         1
     160         1
     157         1
     149         1
     148         1
     147         1
     145         1
     144         2
     143         1
     130         1
     128         1
     125         1
     120         1
     118         1
     105         1
     100         1
      99         1
      98         1
      96         1
      94         1
      92         1
      89         1
      86         1
      85         1
      83         1
      80         1
      73         1
      69         3
      63         1
      62         1
      55         1
      53         1
      52         1
      42         1
      39         1
      33         1
      22         1
      20         2
      19         2
      15         1
      10         1
       9         1
       8         1
       6         1
       3         2